NAME           noswot
ROWS
 N  1       
 L  c1      
 L  c2      
 L  c3      
 L  c4      
 L  c5      
 L  c6      
 G  c7      
 L  c8      
 G  c9      
 L  c10     
 G  c11     
 L  c12     
 G  c13     
 L  c14     
 G  c15     
 L  c16     
 G  c17     
 G  c18     
 G  c19     
 G  c20     
 G  c21     
 G  c22     
 G  c23     
 G  c24     
 G  c25     
 G  c26     
 G  c27     
 G  c28     
 G  c29     
 G  c30     
 G  c31     
 G  c32     
 G  c33     
 G  c34     
 G  c35     
 G  c36     
 G  c37     
 G  c38     
 G  c39     
 G  c40     
 G  c41     
 G  c42     
 G  c43     
 G  c44     
 G  c45     
 G  c46     
 G  c47     
 G  c48     
 G  c49     
 G  c50     
 G  c51     
 G  c52     
 G  c53     
 G  c54     
 G  c55     
 G  c56     
 L  c57     
 L  c58     
 L  c59     
 L  c60     
 L  c61     
 L  c62     
 G  c63     
 L  c64     
 G  c65     
 L  c66     
 G  c67     
 L  c68     
 G  c69     
 L  c70     
 G  c71     
 L  c72     
 G  c73     
 G  c74     
 G  c75     
 G  c76     
 G  c77     
 G  c78     
 G  c79     
 G  c80     
 G  c81     
 G  c82     
 G  c83     
 G  c84     
 G  c85     
 G  c86     
 G  c87     
 G  c88     
 G  c89     
 G  c90     
 G  c91     
 G  c92     
 G  c93     
 G  c94     
 G  c95     
 G  c96     
 G  c97     
 G  c98     
 G  c99     
 G  c100    
 G  c101    
 G  c102    
 G  c103    
 L  c104    
 L  c105    
 L  c106    
 L  c107    
 L  c108    
 L  c109    
 G  c110    
 L  c111    
 G  c112    
 L  c113    
 G  c114    
 L  c115    
 G  c116    
 L  c117    
 G  c118    
 L  c119    
 G  c120    
 G  c121    
 G  c122    
 G  c123    
 G  c124    
 G  c125    
 G  c126    
 G  c127    
 G  c128    
 G  c129    
 G  c130    
 G  c131    
 G  c132    
 G  c133    
 G  c134    
 G  c135    
 G  c136    
 G  c137    
 G  c138    
 G  c139    
 L  c140    
 L  c141    
 L  c142    
 L  c143    
 L  c144    
 L  c145    
 G  c146    
 E  c147    
 G  c148    
 E  c149    
 G  c150    
 L  c151    
 G  c152    
 L  c153    
 G  c154    
 L  c155    
 G  c156    
 G  c157    
 G  c158    
 G  c159    
 G  c160    
 G  c161    
 G  c162    
 G  c163    
 G  c164    
 G  c165    
 L  c166    
 L  c167    
 L  c168    
 L  c169    
 L  c170    
 L  c171    
 G  c172    
 L  c173    
 G  c174    
 L  c175    
 G  c176    
 L  c177    
 G  c178    
 L  c179    
 G  c180    
 L  c181    
 L  c182    
COLUMNS
    MARK0000  'MARKER'                 'INTORG'
    x1        c17                 21   c18                -21
    x2        c19                 21   c20                -21
    x3        c21                 21   c22                -21
    x4        c23                 21   c24                -21
    x5        c25                 21   c26                -21
    x6        c27                 21   c28                -21
    x7        c29                 21   c30                -21
    x8        c31                 21   c32                -21
    x9        c33                 21   c34                -21
    x10       c35                 21   c36                -21
    x11       c37                 21   c38                -21
    x12       c39                 21   c40                -21
    x13       c41                 21   c42                -21
    x14       c43                 21   c44                -21
    x15       c45                 21   c46                -21
    x16       c47                 21   c48                -21
    x17       c49                 21   c50                -21
    x18       c51                 21   c52                -21
    x19       c53                 21   c54                -21
    x20       c55                 21   c56                -21
    x21       c73                 21   c74                -21
    x22       c75                 21   c76                -21
    x23       c77                 21   c78                -21
    x24       c79                 21   c80                -21
    x25       c81                 21   c82                -21
    x26       c83                 21   c84                -21
    x27       c85                 21   c86                -21
    x28       c87                 21   c88                -21
    x29       c89                 21   c90                -21
    x30       c91                 21   c92                -21
    x31       c93                 21   c94                -21
    x32       c95                 21   c96                -21
    x33       c97                 21   c98                -21
    x34       c99                 21   c100               -21
    x35       c101                21   c102               -21
    x36       c120                21   c121               -21
    x37       c122                21   c123               -21
    x38       c124                21   c125               -21
    x39       c126                21   c127               -21
    x40       c128                21   c129               -21
    x41       c130                21   c131               -21
    x42       c132                21   c133               -21
    x43       c134                21   c135               -21
    x44       c136                21   c137               -21
    x45       c138                21   c139               -21
    x46       c156                21   c157               -21
    x47       c158                21   c159               -21
    x48       c160                21   c161               -21
    x49       c162                21   c163               -21
    x50       c164                21   c165               -21
    x51       c2                 -20   c7                  -1
    x51       c8          -9.6000004   c18              -0.75
    x51       c28        -0.66670000   c38              -0.25
    x51       c48              -0.25
    x52       1                   -1   c1                   1
    x52       c2           2.0833001   c7                   1
    x52       c8                   1   c18         -2.0833001
    x52       c28         -2.0833001   c38         -2.0833001
    x52       c48         -2.0833001   c57                  1
    x53       c3                 -20   c9                  -1
    x53       c10         -9.6000004   c20              -0.75
    x53       c30        -0.66670000   c40              -0.25
    x53       c50              -0.25
    x54       1                   -1   c1                   1
    x54       c3           2.0833001   c9                   1
    x54       c10                  1   c20         -2.0833001
    x54       c30         -2.0833001   c40         -2.0833001
    x54       c50         -2.0833001   c57                  1
    x55       c4                 -20   c11                 -1
    x55       c12         -9.6000004   c22              -0.75
    x55       c32        -0.66670000   c42              -0.25
    x55       c52              -0.25
    x56       1                   -1   c1                   1
    x56       c4           2.0833001   c11                  1
    x56       c12                  1   c22         -2.0833001
    x56       c32         -2.0833001   c42         -2.0833001
    x56       c52         -2.0833001   c57                  1
    x57       c5                 -20   c13                 -1
    x57       c14         -9.6000004   c24              -0.75
    x57       c34        -0.66670000   c44              -0.25
    x57       c54              -0.25
    x58       1                   -1   c1                   1
    x58       c5           2.0833001   c13                  1
    x58       c14                  1   c24         -2.0833001
    x58       c34         -2.0833001   c44         -2.0833001
    x58       c54         -2.0833001   c57                  1
    x59       c6                 -16   c15                 -1
    x59       c16         -7.6799998   c26              -0.75
    x59       c36        -0.66670000   c46              -0.25
    x59       c56              -0.25
    x60       1                   -1   c1                   1
    x60       c6           2.0833001   c15                  1
    x60       c16                  1   c26         -2.0833001
    x60       c36         -2.0833001   c46         -2.0833001
    x60       c56         -2.0833001   c57                  1
    x61       c17        -0.66670000   c58                -20
    x61       c63                 -1   c64         -6.7199998
    x61       c74        -0.66670000   c84        -0.66670000
    x61       c94        -0.66670000
    x62       1                   -1   c1                   1
    x62       c17         -2.9762001   c58          2.9762001
    x62       c63                  1   c64                  1
    x62       c74         -2.9762001   c84         -2.9762001
    x62       c94         -2.9762001   c103                 1
    x62       c104                 1
    x63       c19        -0.66670000   c59                -20
    x63       c65                 -1   c66         -6.7199998
    x63       c76        -0.66670000   c86        -0.66670000
    x63       c96        -0.66670000
    x64       1                   -1   c1                   1
    x64       c19         -2.9762001   c59          2.9762001
    x64       c65                  1   c66                  1
    x64       c76         -2.9762001   c86         -2.9762001
    x64       c96         -2.9762001   c103                 1
    x64       c104                 1
    x65       c21        -0.66670000   c60                -20
    x65       c67                 -1   c68         -6.7199998
    x65       c78        -0.66670000   c88        -0.66670000
    x65       c98        -0.66670000
    x66       1                   -1   c1                   1
    x66       c21         -2.9762001   c60          2.9762001
    x66       c67                  1   c68                  1
    x66       c78         -2.9762001   c88         -2.9762001
    x66       c98         -2.9762001   c103                 1
    x66       c104                 1
    x67       c23        -0.66670000   c61                -20
    x67       c69                 -1   c70         -6.7199998
    x67       c80        -0.66670000   c90        -0.66670000
    x67       c100       -0.66670000
    x68       1                   -1   c1                   1
    x68       c23         -2.9762001   c61          2.9762001
    x68       c69                  1   c70                  1
    x68       c80         -2.9762001   c90         -2.9762001
    x68       c100        -2.9762001   c103                 1
    x68       c104                 1
    x69       c25        -0.66670000   c62                -16
    x69       c71                 -1   c72         -5.3759999
    x69       c82        -0.66670000   c92        -0.66670000
    x69       c102       -0.66670000
    x70       1                   -1   c1                   1
    x70       c25         -2.9762001   c62          2.9762001
    x70       c71                  1   c72                  1
    x70       c82         -2.9762001   c92         -2.9762001
    x70       c102        -2.9762001   c103                 1
    x70       c104                 1
    x71       c27        -0.66670000   c73              -0.75
    x71       c105               -20   c110                -1
    x71       c111        -5.7600002   c121       -0.66670000
    x71       c131       -0.66670000
    x72       1                   -1   c1                   1
    x72       c27         -3.4721999   c73         -3.4721999
    x72       c105         3.4721999   c110                 1
    x72       c111                 1   c121        -3.4721999
    x72       c131        -3.4721999   c140                 1
    x73       c29        -0.66670000   c75              -0.75
    x73       c106               -20   c112                -1
    x73       c113        -5.7600002   c123       -0.66670000
    x73       c133       -0.66670000
    x74       1                   -1   c1                   1
    x74       c29         -3.4721999   c75         -3.4721999
    x74       c106         3.4721999   c112                 1
    x74       c113                 1   c123        -3.4721999
    x74       c133        -3.4721999   c140                 1
    x75       c31        -0.66670000   c77              -0.75
    x75       c107               -20   c114                -1
    x75       c115        -5.7600002   c125       -0.66670000
    x75       c135       -0.66670000
    x76       1                   -1   c1                   1
    x76       c31         -3.4721999   c77         -3.4721999
    x76       c107         3.4721999   c114                 1
    x76       c115                 1   c125        -3.4721999
    x76       c135        -3.4721999   c140                 1
    x77       c33        -0.66670000   c79              -0.75
    x77       c108               -20   c116                -1
    x77       c117        -5.7600002   c127       -0.66670000
    x77       c137       -0.66670000
    x78       1                   -1   c1                   1
    x78       c33         -3.4721999   c79         -3.4721999
    x78       c108         3.4721999   c116                 1
    x78       c117                 1   c127        -3.4721999
    x78       c137        -3.4721999   c140                 1
    x79       c35        -0.66670000   c81              -0.75
    x79       c109               -16   c118                -1
    x79       c119        -4.6079998   c129       -0.66670000
    x79       c139       -0.66670000
    x80       1                   -1   c1                   1
    x80       c35         -3.4721999   c81         -3.4721999
    x80       c109         3.4721999   c118                 1
    x80       c119                 1   c129        -3.4721999
    x80       c139        -3.4721999   c140                 1
    x81       c37              -0.25   c83              -0.75
    x81       c120       -0.66670000   c141               -20
    x81       c146                -1   c147        -8.9280005
    x81       c157             -0.25
    x82       1                   -1   c1                   1
    x82       c37         -2.2400999   c83         -2.2400999
    x82       c120        -2.2400999   c141         2.2400999
    x82       c146                 1   c147                 1
    x82       c157        -2.2400999   c166                 1
    x83       c39              -0.25   c85              -0.75
    x83       c122       -0.66670000   c142               -20
    x83       c148                -1   c149        -8.9280005
    x83       c159             -0.25
    x84       1                   -1   c1                   1
    x84       c39         -2.2400999   c85         -2.2400999
    x84       c122        -2.2400999   c142         2.2400999
    x84       c148                 1   c149                 1
    x84       c159        -2.2400999   c166                 1
    x85       c41              -0.25   c87              -0.75
    x85       c124       -0.66670000   c143               -20
    x85       c150                -1   c151        -8.9280005
    x85       c161             -0.25
    x86       1                   -1   c1                   1
    x86       c41         -2.2400999   c87         -2.2400999
    x86       c124        -2.2400999   c143         2.2400999
    x86       c150                 1   c151                 1
    x86       c161        -2.2400999   c166                 1
    x87       c43              -0.25   c89              -0.75
    x87       c126       -0.66670000   c144               -20
    x87       c152                -1   c153        -8.9280005
    x87       c163             -0.25
    x88       1                   -1   c1                   1
    x88       c43         -2.2400999   c89         -2.2400999
    x88       c126        -2.2400999   c144         2.2400999
    x88       c152                 1   c153                 1
    x88       c163        -2.2400999   c166                 1
    x89       c45              -0.25   c91              -0.75
    x89       c128       -0.66670000   c145               -16
    x89       c154                -1   c155        -7.1423998
    x89       c165             -0.25
    x90       1                   -1   c1                   1
    x90       c45         -2.2400999   c91         -2.2400999
    x90       c128        -2.2400999   c145         2.2400999
    x90       c154                 1   c155                 1
    x90       c165        -2.2400999   c166                 1
    x91       c47        -0.66670000   c93              -0.75
    x91       c130       -0.66670000   c156       -0.66670000
    x91       c167               -20   c172                -1
    x91       c173        -9.6000004
    x92       1                   -1   c1                   1
    x92       c47         -2.0833001   c93         -2.0833001
    x92       c130        -2.0833001   c156        -2.0833001
    x92       c167         2.0833001   c172                 1
    x92       c173                 1   c182                 1
    x93       c49        -0.66670000   c95              -0.75
    x93       c132       -0.66670000   c158       -0.66670000
    x93       c168               -20   c174                -1
    x93       c175        -9.6000004
    x94       1                   -1   c1                   1
    x94       c49         -2.0833001   c95         -2.0833001
    x94       c132        -2.0833001   c158        -2.0833001
    x94       c168         2.0833001   c174                 1
    x94       c175                 1   c182                 1
    x95       c51        -0.66670000   c97              -0.75
    x95       c134       -0.66670000   c160       -0.66670000
    x95       c169               -20   c176                -1
    x95       c177        -9.6000004
    x96       1                   -1   c1                   1
    x96       c51         -2.0833001   c97         -2.0833001
    x96       c134        -2.0833001   c160        -2.0833001
    x96       c169         2.0833001   c176                 1
    x96       c177                 1   c182                 1
    x97       c53        -0.66670000   c99              -0.75
    x97       c136       -0.66670000   c162       -0.66670000
    x97       c170               -20   c178                -1
    x97       c179        -9.6000004
    x98       1                   -1   c1                   1
    x98       c53         -2.0833001   c99         -2.0833001
    x98       c136        -2.0833001   c162        -2.0833001
    x98       c170         2.0833001   c178                 1
    x98       c179                 1   c182                 1
    x99       c55        -0.66670000   c101             -0.75
    x99       c138       -0.66670000   c164       -0.66670000
    x99       c171               -16   c180                -1
    x99       c181        -7.6799998
    x100      1                   -1   c1                   1
    x100      c55         -2.0833001   c101        -2.0833001
    x100      c138        -2.0833001   c164        -2.0833001
    x100      c171         2.0833001   c180                 1
    x100      c181                 1   c182                 1
    MARK0001  'MARKER'                 'INTEND'
    x101      c2                   1   c17                  1
    x101      c18                 -1   c27                  1
    x101      c28                 -1   c37                  1
    x101      c38                 -1   c47                  1
    x101      c48                 -1
    x102      c3                   1   c19                  1
    x102      c20                 -1   c29                  1
    x102      c30                 -1   c39                  1
    x102      c40                 -1   c49                  1
    x102      c50                 -1
    x103      c4                   1   c21                  1
    x103      c22                 -1   c31                  1
    x103      c32                 -1   c41                  1
    x103      c42                 -1   c51                  1
    x103      c52                 -1
    x104      c5                   1   c23                  1
    x104      c24                 -1   c33                  1
    x104      c34                 -1   c43                  1
    x104      c44                 -1   c53                  1
    x104      c54                 -1
    x105      c6                   1   c25                  1
    x105      c26                 -1   c35                  1
    x105      c36                 -1   c45                  1
    x105      c46                 -1   c55                  1
    x105      c56                 -1
    x106      c17                 -1   c18                  1
    x106      c58                  1   c73                  1
    x106      c74                 -1   c83                  1
    x106      c84                 -1   c93                  1
    x106      c94                 -1
    x107      c19                 -1   c20                  1
    x107      c59                  1   c75                  1
    x107      c76                 -1   c85                  1
    x107      c86                 -1   c95                  1
    x107      c96                 -1
    x108      c21                 -1   c22                  1
    x108      c60                  1   c77                  1
    x108      c78                 -1   c87                  1
    x108      c88                 -1   c97                  1
    x108      c98                 -1
    x109      c23                 -1   c24                  1
    x109      c61                  1   c79                  1
    x109      c80                 -1   c89                  1
    x109      c90                 -1   c99                  1
    x109      c100                -1
    x110      c25                 -1   c26                  1
    x110      c62                  1   c81                  1
    x110      c82                 -1   c91                  1
    x110      c92                 -1   c101                 1
    x110      c102                -1
    x111      c27                 -1   c28                  1
    x111      c73                 -1   c74                  1
    x111      c105                 1   c120                 1
    x111      c121                -1   c130                 1
    x111      c131                -1
    x112      c29                 -1   c30                  1
    x112      c75                 -1   c76                  1
    x112      c106                 1   c122                 1
    x112      c123                -1   c132                 1
    x112      c133                -1
    x113      c31                 -1   c32                  1
    x113      c77                 -1   c78                  1
    x113      c107                 1   c124                 1
    x113      c125                -1   c134                 1
    x113      c135                -1
    x114      c33                 -1   c34                  1
    x114      c79                 -1   c80                  1
    x114      c108                 1   c126                 1
    x114      c127                -1   c136                 1
    x114      c137                -1
    x115      c35                 -1   c36                  1
    x115      c81                 -1   c82                  1
    x115      c109                 1   c128                 1
    x115      c129                -1   c138                 1
    x115      c139                -1
    x116      c37                 -1   c38                  1
    x116      c83                 -1   c84                  1
    x116      c120                -1   c121                 1
    x116      c141                 1   c156                 1
    x116      c157                -1
    x117      c39                 -1   c40                  1
    x117      c85                 -1   c86                  1
    x117      c122                -1   c123                 1
    x117      c142                 1   c158                 1
    x117      c159                -1
    x118      c41                 -1   c42                  1
    x118      c87                 -1   c88                  1
    x118      c124                -1   c125                 1
    x118      c143                 1   c160                 1
    x118      c161                -1
    x119      c43                 -1   c44                  1
    x119      c89                 -1   c90                  1
    x119      c126                -1   c127                 1
    x119      c144                 1   c162                 1
    x119      c163                -1
    x120      c45                 -1   c46                  1
    x120      c91                 -1   c92                  1
    x120      c128                -1   c129                 1
    x120      c145                 1   c164                 1
    x120      c165                -1
    x121      c47                 -1   c48                  1
    x121      c93                 -1   c94                  1
    x121      c130                -1   c131                 1
    x121      c156                -1   c157                 1
    x121      c167                 1
    x122      c49                 -1   c50                  1
    x122      c95                 -1   c96                  1
    x122      c132                -1   c133                 1
    x122      c158                -1   c159                 1
    x122      c168                 1
    x123      c51                 -1   c52                  1
    x123      c97                 -1   c98                  1
    x123      c134                -1   c135                 1
    x123      c160                -1   c161                 1
    x123      c169                 1
    x124      c53                 -1   c54                  1
    x124      c99                 -1   c100                 1
    x124      c136                -1   c137                 1
    x124      c162                -1   c163                 1
    x124      c170                 1
    x125      c55                 -1   c56                  1
    x125      c101                -1   c102                 1
    x125      c138                -1   c139                 1
    x125      c164                -1   c165                 1
    x125      c171                 1
    x126      c149                 1
    x127      c147                 1
    x128      c151                 2   c153                 3
    x128      c155                 4
RHS
    rhs       c1                  43   c18                -21
    rhs       c20                -21   c22                -21
    rhs       c24                -21   c26                -21
    rhs       c28                -21   c30                -21
    rhs       c32                -21   c34                -21
    rhs       c36                -21   c38                -21
    rhs       c40                -21   c42                -21
    rhs       c44                -21   c46                -21
    rhs       c48                -21   c50                -21
    rhs       c52                -21   c54                -21
    rhs       c56                -21   c57                 38
    rhs       c74                -21   c76                -21
    rhs       c78                -21   c80                -21
    rhs       c82                -21   c84                -21
    rhs       c86                -21   c88                -21
    rhs       c90                -21   c92                -21
    rhs       c94                -21   c96                -21
    rhs       c98                -21   c100               -21
    rhs       c102               -21   c103                 5
    rhs       c104                 9   c121               -21
    rhs       c123               -21   c125               -21
    rhs       c127               -21   c129               -21
    rhs       c131               -21   c133               -21
    rhs       c135               -21   c137               -21
    rhs       c139               -21   c140                 2
    rhs       c157               -21   c159               -21
    rhs       c161               -21   c163               -21
    rhs       c165               -21   c166                 1
    rhs       c182                 2
BOUNDS
 UP bnd       x1                   1
 UP bnd       x2                   1
 UP bnd       x3                   1
 UP bnd       x4                   1
 UP bnd       x5                   1
 UP bnd       x6                   1
 UP bnd       x7                   1
 UP bnd       x8                   1
 UP bnd       x9                   1
 UP bnd       x10                  1
 UP bnd       x11                  1
 UP bnd       x12                  1
 UP bnd       x13                  1
 UP bnd       x14                  1
 UP bnd       x15                  1
 UP bnd       x16                  1
 UP bnd       x17                  1
 UP bnd       x18                  1
 UP bnd       x19                  1
 UP bnd       x20                  1
 UP bnd       x21                  1
 UP bnd       x22                  1
 UP bnd       x23                  1
 UP bnd       x24                  1
 UP bnd       x25                  1
 UP bnd       x26                  1
 UP bnd       x27                  1
 UP bnd       x28                  1
 UP bnd       x29                  1
 UP bnd       x30                  1
 UP bnd       x31                  1
 UP bnd       x32                  1
 UP bnd       x33                  1
 UP bnd       x34                  1
 UP bnd       x35                  1
 UP bnd       x36                  1
 UP bnd       x37                  1
 UP bnd       x38                  1
 UP bnd       x39                  1
 UP bnd       x40                  1
 UP bnd       x41                  1
 UP bnd       x42                  1
 UP bnd       x43                  1
 UP bnd       x44                  1
 UP bnd       x45                  1
 UP bnd       x46                  1
 UP bnd       x47                  1
 UP bnd       x48                  1
 UP bnd       x49                  1
 UP bnd       x50                  1
 UP bnd       x51                  1
 UP bnd       x52             100000
 UP bnd       x53                  1
 UP bnd       x54             100000
 UP bnd       x55                  1
 UP bnd       x56             100000
 UP bnd       x57                  1
 UP bnd       x58             100000
 UP bnd       x59                  1
 UP bnd       x60             100000
 UP bnd       x61                  1
 UP bnd       x62             100000
 UP bnd       x63                  1
 UP bnd       x64             100000
 UP bnd       x65                  1
 UP bnd       x66             100000
 UP bnd       x67                  1
 UP bnd       x68             100000
 UP bnd       x69                  1
 UP bnd       x70             100000
 UP bnd       x71                  1
 UP bnd       x72             100000
 UP bnd       x73                  1
 UP bnd       x74             100000
 UP bnd       x75                  1
 UP bnd       x76             100000
 UP bnd       x77                  1
 UP bnd       x78             100000
 UP bnd       x79                  1
 UP bnd       x80             100000
 UP bnd       x81                  1
 UP bnd       x82             100000
 UP bnd       x83                  1
 UP bnd       x84             100000
 UP bnd       x85                  1
 UP bnd       x86             100000
 UP bnd       x87                  1
 UP bnd       x88             100000
 UP bnd       x89                  1
 UP bnd       x90             100000
 UP bnd       x91                  1
 UP bnd       x92             100000
 UP bnd       x93                  1
 UP bnd       x94             100000
 UP bnd       x95                  1
 UP bnd       x96             100000
 UP bnd       x97                  1
 UP bnd       x98             100000
 UP bnd       x99                  1
 UP bnd       x100            100000
ENDATA
